# Solution for model r3_t18_m0_0 Batch Number: 3
# Finished Task: 18 / 18
# Makespan: 657.0, Total Distance: 651.0, Total Time: 0.6709
# R O S F Batch
0 0 16 0.0 0.0 -1
1 1 12 0.0 0.0 -1
2 2 19 0.0 0.0 -1
3 0 14 485.0 518.0 1
4 1 20 457.0 485.0 1
5 2 13 386.0 425.0 0
6 0 8 238.0 258.0 0
7 0 3 395.0 425.0 0
8 0 7 339.0 369.0 0
9 1 15 221.0 251.0 0
10 2 5 341.0 370.0 0
11 2 17 551.0 580.0 2
12 1 9 75.0 108.0 0
13 2 11 457.0 495.0 2
14 0 -1 560.0 598.0 2
15 1 18 288.0 322.0 0
16 0 6 164.0 200.0 0
17 2 -1 634.0 657.0 2
18 1 4 404.0 425.0 0
19 2 10 184.0 223.0 0
20 1 -1 627.0 657.0 2
